c array.sh: path:     /home/seidl/data/parity/parity30.qdimacs
c array.sh: name:     parity30
c array.sh: task:     10
c array.sh: host:     c3n05
c array.sh: uname:    Linux c3n05 4.15.0-135-generic #139-Ubuntu SMP Mon Jan 18 17:38:24 UTC 2021 x86_64 x86_64 x86_64 GNU/Linux
c array.sh: start:    Tue Feb 16 22:30:17 CET 2021
c array.sh: noturbo:  1
c array.sh: governor: 32 performance
c array.sh: tmp:      1%
c array.sh: unzipped: /tmp/local-unzipped-18834717-10-parity30.cnf
using tmp directory:
  /tmp
running QBF solver...

/home/seidl/cert_tests/bin/ferp-models/ijtihad/ijtihad --dependencies=0 --wit_per_call=-1 --cex_per_call=-1 --log_phi=/tmp/ferpcert3126expanded.cnf /tmp/local-unzipped-18834717-10-parity30.cnf
c Options after parsing: 
c cex_per_call = 18446744073709551615
c wit_per_call = 18446744073709551615
c warmup = 1
c warmup_randoms = 0
c trimming_phi = 0
c trimming_ksi = 2
c trimming_interval = 200
c memory_limit = 3000000
c MySolverv970-glucose
-1 
1 
c Number of calls is: 0
c Layers in PHI: 0
c Layers in KSI: 0
c Running Ijtihad loop
c sat_solver_phi calld 0 times, running for 0.003962 seconds.
c number of layers in PHI is 2
c sat_solver_ksi was running for 0 seconds.
c number of layers in KSI is 0
c mysolver was running for 0.004707 seconds.
s cnf 0
solving done with exit code 20

QBF solver OK

running SAT Solver...

/tmp/ferpcert3126expanded.cnf
s UNSATISFIABLE

PROOF GENERATION OK

checking unsat proof

resolved 1 root and 1 empty clause
trace-size2: 58809

TRACE CHECK OK

running toferp...

ferp-size: 60430
TOFERP OK

checking FERP PROOF...

FERP CHECK OK

extracting AIG ...

aig-size: 2161431
aig-header: aag 111571 59 0 1 111512
FERP CERT OK

merging  AIG into QBF ...

CERTCHECK OK

merged-cnf-header: p cnf 111983 335591
merged-cnf-size: 5796422
running SAT solver...

c ---- [ banner ] ------------------------------------------------------------
c
c KISSAT SAT Solver
c Copyright (c) 2019-2020 Armin Biere JKU Linz
c 
c Version 1.0.3 59813addcacc4d6fb880ebdd63685600475aa940
c gcc (Ubuntu 7.5.0-3ubuntu1~18.04) 7.5.0 -W -Wall -O3 -DNEMBEDDED -DNDEBUG -DNMETRICS -DNSTATISTICS
c Sun Feb 14 23:58:54 CET 2021 Linux cluster3 4.15.0-135-generic x86_64
c
c ---- [ parsing ] -----------------------------------------------------------
c
c opened and reading DIMACS file:
c 
c   /tmp/ferpcert_merged_cnf3126.cnf
c 
c parsed 'p cnf 111983 335591' header
c closing input after reading 5796422 bytes (6 MB)
c finished parsing after 0.09 seconds
c
c ---- [ solving ] -----------------------------------------------------------
c
c  seconds reductions redundant irredundant
c         MB   restarts    trail       variables
c          level  conflicts   glue           remaining
c
c *  0.09 18 0  0  0   0   0 0% 0 335589 111687 100%
c {  0.09 18 0  0  0   0   0 0% 0 335589 111687 100%
c i  0.30 21 69  0  2 217 211 62% 8 335589 111686 100%
c i  0.30 21 67  0  2 220 213 60% 8 335589 111685 100%
c -  0.34 21 60  1  2 300 218 59% 6 335111 111685 100%
c i  0.43 21 72  1  2 530 437 70% 5 335111 111684 100%
c i  0.43 21 72  1  2 531 437 70% 5 335111 111682 100%
c i  0.43 21 71  1  2 534 438 70% 5 335111 111681 100%
c i  0.46 21 80  1  6 575 476 66% 5 335111 111680 100%
c i  0.48 21 88  1  8 599 499 64% 6 335111 111678 100%
c i  0.55 22 77  1 24 805 687 53% 5 335111 111675 100%
c i  0.55 22 77  1 24 809 690 53% 5 335111 111673 100%
c i  0.56 22 72  1 24 861 729 49% 5 335111 111672 100%
c i  0.57 22 70  1 24 886 748 48% 5 335111 111666 100%
c -  0.58 22 69  2 24 900 670 47% 5 335054 111666 100%
c i  0.60 22 65  2 24 979 745 48% 5 335054 111664 100%
c }  0.62 22 65  2 24 1000 764 49% 5 335054 111664 100%
c [  0.62 22 0  2 24 1000 764 0% 0 335054 111664 100%
c O  0.64 22 48  2 24 1002 766 34% 3 334921 111664 100%
c i  0.64 22 35  2 24 1003 766 21% 2 334921 111663 100%
c
c  seconds  reductions  redundant irredundant
c         MB    restarts      trail       variables
c          level   conflicts     glue           remaining
c
c i  0.68 22 40  2 24 1098 855 32% 4 334921 111661 100%
c i  0.69 22 40  2 24 1099 855 33% 4 334921 111659 100%
c i  0.69 22 40  2 24 1100 855 33% 4 334921 111654 100%
c i  0.73 22 50  2 24 1203 956 39% 4 334921 111653 100%
c ]  1.12 22 37  2 24 1502 1247 72% 11 334921 111653 100%
c {  1.12 22 65  2 24 1502 1247 49% 5 334921 111653 100%
c i  1.17 22 69  2 39 1539 1283 49% 5 334921 111652 100%
c i  1.22 22 68  2 64 1602 1345 47% 5 334921 111651 100%
c i  1.25 22 65  2 64 1788 1521 45% 5 334921 111650 100%
c -  1.26 22 64  3 64 1800 1277 44% 5 334883 111650 100%
c i  1.27 22 64  3 64 1817 1292 44% 5 334883 111649 100%
c i  1.32 22 63  3 68 1870 1342 45% 5 334883 111648 100%
c i  1.33 22 61  3 68 1926 1390 43% 5 334883 111647 100%
c i  1.34 22 60  3 68 1935 1398 43% 5 334883 111646 100%
c i  1.34 22 59  3 68 1961 1420 42% 5 334883 111644 100%
c i  1.35 22 58  3 68 1996 1454 42% 5 334883 111642 100%
c i  1.35 22 57  3 68 2009 1466 41% 5 334883 111641 100%
c i  1.39 22 57  3 73 2053 1506 41% 5 334883 111640 100%
c i  1.43 22 56  3 73 2225 1667 46% 4 334883 111639 100%
c d  1.58 23 50  3 73 2500 1884 49% 4 334795 111599 100%
c
c  seconds  reductions  redundant  irredundant
c         MB    restarts       trail       variables
c          level   conflicts      glue           remaining
c
c d  1.60 24 50  3 73 2500 1884 49% 4 334685 111552 100%
c 3  1.65 23 50  3 73 2500 3980 49% 4 334685 111552 100%
c t  1.67 23 50  3 73 2500 3980 49% 4 333491 111341 99%
c f  1.85 25 50  3 73 2500 63794 49% 4 333449 110944 99%
c f  1.86 25 50  3 73 2500 63792 49% 4 333387 110942 99%
c u  1.98 25 50  3 73 2500 63748 49% 4 333387 110942 99%
c v  2.04 25 50  3 73 2500 63729 49% 4 333387 110942 99%
c w  2.17 26 50  3 73 2500 63941 49% 4 333346 110869 99%
c d  2.20 26 50  3 73 2500 61801 49% 4 329549 108926 97%
c d  2.22 26 50  3 73 2500 61785 49% 4 329472 108887 97%
c i  2.22 26 50  3 73 2500 61785 49% 4 329472 108887 97%
c i  2.22 26 50  3 73 2501 61785 49% 4 329472 108886 97%
c i  2.28 26 48  3 73 2828 62098 52% 4 329472 108884 97%
c i  2.29 26 48  3 73 2861 62128 51% 4 329472 108883 97%
c i  2.38 26 47  3 102 2979 62242 51% 4 329472 108882 97%
c -  2.40 26 47  4 110 3000 15858 50% 4 327562 108882 97%
c I  2.41 26 47  4 112 3003 15861 50% 4 327562 108882 97%
c i  2.41 26 47  4 114 3010 15867 50% 4 327562 108879 97%
c i  2.50 26 46  4 137 3146 15998 49% 4 327562 108873 97%
c i  2.53 26 47  4 137 3218 16067 50% 4 327562 108869 97%
c
c  seconds  reductions    redundant  irredundant
c         MB    restarts         trail       variables
c          level    conflicts       glue           remaining
c
c }  2.65 26 47  4 142 3502 16341 50% 4 327562 108869 97%
c [  2.65 26 37  4 142 3502 16341 72% 11 327562 108869 97%
c -  3.41 26 34  5 142 4502 13314 80% 7 327530 108869 97%
c ]  3.47 26 35  5 143 4624 13432 80% 7 327530 108869 97%
c {  3.47 26 47  5 143 4624 13432 50% 4 327530 108869 97%
c i  3.51 26 46  5 144 4715 13518 50% 4 327530 108868 97%
c i  3.76 26 41  5 200 5260 14038 45% 4 327530 108867 97%
c i  3.79 26 41  5 200 5300 14076 46% 4 327530 108866 97%
c i  3.83 26 41  5 200 5502 14262 43% 4 327530 108865 97%
c i  3.99 26 40  5 258 5826 14573 42% 4 327530 108864 97%
c i  3.99 26 40  5 258 5829 14575 42% 4 327530 108863 97%
c i  4.05 26 40  5 274 5902 14646 42% 4 327530 108860 97%
c i  4.14 26 39  5 302 5966 14709 41% 4 327530 108858 97%
c i  4.17 26 39  5 307 6001 14743 41% 4 327530 108857 97%
c a  4.19 26 39  5 307 6003 14734 41% 4 327454 108848 97%
c B  4.20 26 39  5 307 6004 14735 41% 4 327454 108848 97%
c i  4.33 26 39  5 345 6187 14912 42% 4 327454 108847 97%
c -  4.44 26 39  6 387 6302 10468 41% 4 327451 108847 97%
c i  4.51 26 39  6 412 6375 10538 41% 4 327451 108846 97%
c i  4.80 26 38  6 415 7262 11373 49% 4 327451 108843 97%
c
c  seconds  reductions    redundant  irredundant
c         MB    restarts         trail       variables
c          level    conflicts       glue           remaining
c
c i  4.82 26 38  6 415 7293 11402 49% 4 327451 108842 97%
c i  4.87 26 37  6 428 7390 11493 49% 4 327451 108838 97%
c d  4.97 26 38  6 446 7500 11535 48% 4 327343 108782 97%
c d  4.99 26 38  6 446 7500 11535 48% 4 327272 108751 97%
c 3  5.04 26 38  6 446 7500 15159 48% 4 327272 108751 97%
c t  5.06 26 38  6 446 7500 15157 48% 4 326275 108563 97%
c f  5.23 27 38  6 446 7500 67821 48% 4 326210 108414 97%
c u  5.33 27 38  6 446 7500 68443 48% 4 326210 108414 97%
c v  5.36 27 38  6 446 7500 68594 48% 4 326210 108414 97%
c w  5.53 27 38  6 446 7500 68718 48% 4 326140 108366 97%
c d  5.56 27 38  6 446 7500 67202 48% 4 323026 106757 95%
c d  5.58 27 38  6 446 7500 67187 48% 4 322944 106716 95%
c i  5.59 27 38  6 446 7500 67187 48% 4 322944 106716 95%
c i  5.63 27 40  6 457 7607 67293 48% 4 322944 106715 95%
c i  5.64 27 40  6 463 7626 67309 48% 4 322944 106714 95%
c i  5.78 27 39  6 489 7894 67569 47% 4 322944 106713 95%
c i  5.90 27 38  6 499 8154 67793 46% 4 322944 106712 95%
c i  5.93 27 38  6 499 8186 67824 46% 4 322944 106710 95%
c -  6.16 27 38  7 540 8404 7076 45% 4 321873 106710 95%
c i  6.40 27 38  7 593 8711 7367 45% 4 321873 106707 95%
c
c  seconds  reductions   redundant  irredundant
c         MB    restarts        trail       variables
c          level    conflicts      glue           remaining
c
c i  6.58 27 38  7 662 8926 7575 44% 5 321873 106706 95%
c i  6.61 27 38  7 662 9000 7648 44% 4 321873 106705 95%
c i  6.67 27 38  7 665 9070 7717 44% 4 321873 106703 95%
c i  6.68 27 38  7 668 9110 7754 44% 4 321873 106702 95%
c i  6.70 27 38  7 668 9137 7779 44% 4 321873 106701 95%
c i  6.79 27 38  7 687 9312 7944 44% 4 321873 106700 95%
c }  7.08 27 37  7 739 9624 8250 44% 5 321873 106700 95%
c [  7.08 27 35  7 739 9624 8250 80% 7 321873 106700 95%
c a  7.31 27 34  7 739 10004 8538 75% 6 321781 106681 95%
c W  7.48 28 34  7 739 10005 8539 75% 6 321781 106681 95%
c -  7.85 28 35  8 740 10805 7533 73% 7 321781 106681 95%
c 2  8.52 28 32  8 741 12502 8999 62% 6 320635 106432 95%
c s  8.55 28 32  8 741 12502 8999 62% 6 319872 106402 95%
c e  9.26 25 32  8 741 12502 8999 62% 6 97378 14313 13%
c s  9.30 25 32  8 741 12502 8999 62% 6 97267 14313 13%
c e  9.32 25 32  8 741 12502 8999 62% 6 96773 14196 13%
c -  9.51 19 32  9 741 13505 1338 60% 6 96581 14196 13%
c d  9.72 19 30  9 743 15000 2521 53% 6 96482 14155 13%
c d  9.72 19 30  9 743 15000 2519 53% 6 96473 14153 13%
c 3  9.78 19 30  9 743 15000 13728 53% 6 96465 14153 13%
c
c  seconds  reductions     redundant  irredundant
c         MB    restarts          trail      variables
c          level     conflicts       glue         remaining
c
c t  9.79 19 30  9 743 15000 13526 53% 6 95307 14141 13%
c f  9.81 20 30  9 743 15000 29952 53% 6 95292 14112 13%
c u  9.87 20 30  9 743 15000 29742 53% 6 95235 14112 13%
c v  9.88 20 30  9 743 15000 29614 53% 6 95235 14112 13%
c w  9.93 21 30  9 743 15000 29750 53% 6 95202 14112 13%
c d  9.94 21 30  9 743 15000 28964 53% 6 94789 13935 12%
c i  9.95 21 30  9 743 15000 28964 53% 6 94789 13935 12%
c O  9.95 21 30  9 743 15006 28970 53% 6 94789 13935 12%
c - 10.27 21 31 10 744 16505 9372 61% 6 94664 13935 12%
c ] 10.48 21 30 10 744 17419 10224 62% 6 94664 13935 12%
c { 10.48 21 37 10 744 17419 10224 44% 5 94664 13935 12%
c - 10.85 21 37 11 947 19805 9374 46% 5 94661 13935 12%
c B 11.01 21 36 11 996 21007 10499 45% 5 94660 13935 12%
c d 11.09 22 36 11 1042 21400 10827 45% 5 94608 13917 12%
c 3 11.15 19 36 11 1042 21400 21699 45% 5 94589 13917 12%
c t 11.18 19 36 11 1042 21400 20340 45% 5 94440 13917 12%
c f 11.21 20 36 11 1042 21400 35904 45% 5 94440 13886 12%
c u 11.27 20 36 11 1042 21400 35751 45% 5 94316 13886 12%
c v 11.28 20 36 11 1042 21400 35695 45% 5 94316 13886 12%
c w 11.35 21 36 11 1042 21400 35807 45% 5 94036 13886 12%
c
c  seconds  reductions      redundant  irredundant
c         MB     restarts          trail      variables
c          level      conflicts       glue         remaining
c
c d 11.36 21 36 11 1042 21400 35437 45% 5 93637 13702 12%
c d 11.36 21 36 11 1042 21400 35426 45% 5 93626 13698 12%
c i 11.37 21 36 11 1042 21400 35426 45% 5 93626 13698 12%
c - 11.69 22 34 12 1183 23406 10511 45% 5 93557 13698 12%
c - 12.48 22 30 13 1734 27307 9905 41% 5 93553 13698 12%
c } 12.50 22 30 13 1758 27420 10005 41% 5 93552 13698 12%
c [ 12.50 22 30 13 1758 27420 10005 62% 6 93552 13698 12%
c W 12.71 22 30 13 1758 28009 10561 63% 6 93552 13698 12%
c 2 12.76 22 30 13 1759 28503 11018 63% 6 93526 13698 12%
c s 12.76 22 30 13 1759 28503 11018 63% 6 93137 13698 12%
c e 12.79 18 30 13 1759 28503 11018 63% 6 92323 13457 12%
c 2 12.79 18 30 13 1759 28503 11018 63% 6 92313 13457 12%
c s 12.80 18 30 13 1759 28503 11018 63% 6 92185 13457 12%
c e 12.81 18 30 13 1759 28503 11018 63% 6 92080 13429 12%
c d 13.01 19 30 13 1759 29401 10441 63% 6 92030 13405 12%
c d 13.01 19 30 13 1759 29401 10440 63% 6 92015 13401 12%
c 3 13.07 19 30 13 1759 29401 20781 63% 6 92001 13401 12%
c t 13.08 19 30 13 1759 29401 20691 63% 6 91842 13400 12%
c f 13.11 20 30 13 1759 29401 36394 63% 6 91837 13399 12%
c u 13.16 20 30 13 1759 29401 36200 63% 6 91837 13399 12%
c
c  seconds  reductions      redundant  irredundant
c         MB     restarts          trail      variables
c          level      conflicts       glue         remaining
c
c v 13.18 20 30 13 1759 29401 36133 63% 6 91837 13399 12%
c w 13.25 21 30 13 1759 29401 36137 63% 6 91281 13399 12%
c d 13.25 21 30 13 1759 29401 35942 63% 6 91124 13324 12%
c d 13.26 21 30 13 1759 29401 35940 63% 6 91121 13323 12%
c i 13.26 21 30 13 1759 29401 35940 63% 6 91121 13323 12%
c - 13.58 22 28 14 1760 31507 11980 61% 6 91114 13323 12%
c i 13.93 22 25 14 1762 33186 13121 54% 6 91114 13278 12%
c - 14.57 22 28 15 1764 36007 10933 61% 7 91061 13278 12%
c a 14.58 22 28 15 1764 36010 10936 61% 7 90746 13272 12%
c I 14.58 22 28 15 1764 36011 10937 61% 7 90746 13272 12%
c ] 14.82 22 28 15 1764 36824 11715 61% 7 90746 13272 12%
c { 14.82 22 30 15 1764 36824 11715 41% 5 90746 13272 12%
c d 15.32 22 30 15 2085 39001 13728 41% 5 90716 13258 12%
c d 15.33 22 30 15 2085 39001 13728 41% 5 90707 13256 12%
c 3 15.40 19 30 15 2085 39001 24900 41% 5 90699 13256 12%
c t 15.41 19 30 15 2085 39001 24627 41% 5 90583 13256 12%
c f 15.43 20 30 15 2085 39001 36413 41% 5 90583 13254 12%
c u 15.50 20 30 15 2085 39001 36211 41% 5 90579 13254 12%
c v 15.53 20 30 15 2085 39001 36148 41% 5 90579 13254 12%
c w 15.59 21 30 15 2085 39001 36160 41% 5 89884 13254 12%
c
c  seconds  reductions      redundant  irredundant
c         MB     restarts          trail      variables
c          level      conflicts       glue         remaining
c
c d 15.60 21 30 15 2085 39001 36028 41% 5 89817 13215 12%
c d 15.61 21 30 15 2085 39001 36027 41% 5 89815 13214 12%
c i 15.61 21 30 15 2085 39001 36027 41% 5 89815 13214 12%
c - 16.06 22 29 16 2331 40807 16339 41% 5 89811 13214 12%
c B 17.02 22 27 16 2924 45012 20203 40% 5 89808 13214 12%
c - 17.29 22 27 17 3154 45907 16578 40% 5 89808 13214 12%
c d 18.61 22 26 17 4083 50201 20410 40% 5 89752 13189 12%
c d 18.62 22 26 17 4083 50201 20407 40% 5 89747 13188 12%
c 3 18.70 19 26 17 4083 50201 32907 40% 5 89742 13188 12%
c t 18.71 19 26 17 4083 50201 32522 40% 5 89674 13188 12%
c f 18.74 20 26 17 4083 50201 46214 40% 5 89674 13183 12%
c u 18.81 21 26 17 4083 50201 45918 40% 5 89674 13183 12%
c v 18.84 21 26 17 4083 50201 45810 40% 5 89674 13183 12%
c w 18.91 22 26 17 4083 50201 45928 40% 5 89267 13183 12%
c d 18.92 22 26 17 4083 50201 45727 40% 5 89125 13124 12%
c d 18.93 22 26 17 4083 50201 45726 40% 5 89123 13123 12%
c i 18.93 22 26 17 4083 50201 45726 40% 5 89123 13123 12%
c - 19.33 22 26 18 4356 51308 24669 40% 6 89113 13123 12%
c 2 19.77 22 26 18 4677 52504 25798 40% 6 89096 13121 12%
c s 19.78 22 26 18 4677 52504 25798 40% 6 88584 13121 12%
c
c  seconds  reductions      redundant  irredundant
c         MB     restarts          trail      variables
c          level      conflicts       glue         remaining
c
c e 19.82 18 26 18 4677 52504 25798 40% 6 85596 12478 11%
c 2 19.82 18 26 18 4677 52504 25798 40% 6 85591 12478 11%
c s 19.83 18 26 18 4677 52504 25798 40% 6 85456 12478 11%
c e 19.84 18 26 18 4677 52504 25798 40% 6 85327 12455 11%
c } 20.21 20 26 18 4906 53827 24486 41% 6 85327 12455 11%
c [ 20.21 20 28 18 4906 53827 24486 61% 7 85327 12455 11%
c W 20.61 20 28 18 4907 55013 25609 61% 8 85326 12455 11%
c - 21.08 20 27 19 4908 57008 20136 60% 8 85325 12455 11%
c d 22.36 21 25 19 4912 63005 25203 59% 8 85301 12444 11%
c 3 22.45 19 25 19 4912 63005 38242 59% 8 85298 12444 11%
c t 22.48 19 25 19 4912 63005 37288 59% 8 85167 12444 11%
c f 22.51 20 25 19 4912 63005 48572 59% 8 85167 12434 11%
c f 22.52 20 25 19 4912 63005 48568 59% 8 85160 12434 11%
c u 22.60 21 25 19 4912 63005 48767 59% 8 85160 12345 11%
c v 22.63 21 25 19 4912 63005 47950 59% 8 85160 12345 11%
c w 22.70 22 25 19 4912 63005 48556 59% 8 82816 12344 11%
c d 22.71 22 25 19 4912 63005 44408 59% 8 82137 12192 11%
c d 22.72 22 25 19 4912 63005 44354 59% 8 82101 12179 11%
c i 22.72 22 25 19 4912 63005 44354 59% 8 82101 12179 11%
c - 22.73 22 25 20 4912 63008 18158 59% 8 81707 12179 11%
c
c  seconds  reductions      redundant  irredundant
c         MB     restarts          trail      variables
c          level      conflicts       glue         remaining
c
c i 22.82 19 24 20 4912 63418 18431 58% 8 81707 12120 11%
c i 22.85 19 24 20 4912 63541 18513 58% 8 81707 12038 11%
c ] 22.89 19 24 20 4912 63736 18631 58% 8 81707 11472 10%
c 0 22.89 19 26 20 4912 63736 18631 41% 6 81707 11472 10%
c
c ---- [ result ] ------------------------------------------------------------
c
s UNSATISFIABLE
c
c ---- [ profiling ] ---------------------------------------------------------
c
c          18.32   80.04 %  search
c          10.75   46.98 %  focused
c           7.57   33.06 %  stable
c           4.48   19.58 %  simplify
c           3.10   13.54 %  probe
c           1.51    6.59 %  vivify
c           0.95    4.15 %  eliminate
c           0.54    2.35 %  failed
c           0.50    2.17 %  ternary
c           0.41    1.80 %  substitute
c           0.29    1.28 %  walking
c           0.17    0.73 %  reduce
c           0.15    0.64 %  transitive
c           0.14    0.61 %  autarky
c           0.09    0.38 %  parse
c =============================================
c          22.89  100.00 %  total
c
c ---- [ statistics ] --------------------------------------------------------
c
c conflicts:                            63736             2784.40 per second
c decisions:                           239478                3.76 per conflict
c propagations:                     173994566          7601202    per second
c reductions:                              20             3187    interval
c rephased:                                10             6374    interval
c restarts:                              4912               12.98 interval
c
c ---- [ resources ] ---------------------------------------------------------
c
c maximum-resident-set-size:         37060608 bytes         35 MB
c process-time:                            22s              22.89 seconds
c
c ---- [ shutting down ] -----------------------------------------------------
c
c exit 20

SAT solver OK

VALID
c array.sh: end:      Tue Feb 16 22:30:40 CET 2021
